(set-info :Origin "This instance was generated by: BanditFuzz-- an RL fuzzer for SMT solvers" )
(set-info :Author "Joe Scott, Fed Mora, Vijay Ganesh" )
(set-info :Contact "Joe Scott, joseph.scott@uwaterloo.ca")
(set-logic QF_BV)
(declare-const bool_0 Bool)
(declare-const bool_1 Bool)
(declare-const bool_2 Bool)
(declare-const bool_3 Bool)
(declare-const bool_4 Bool)
(declare-const bv_0 (_ BitVec 32))
(declare-const bv_1 (_ BitVec 32))
(declare-const bv_2 (_ BitVec 32))
(declare-const bv_3 (_ BitVec 32))
(declare-const bv_4 (_ BitVec 32))
(assert (or (bvsge (bvadd bv_0 #xb1f5f6b4 ) (bvlshr #x8c8ef29d  bv_1)) (bvslt (bvudiv #x9226d475  #xfc8dae56 ) (bvshl bv_1 #x8e11792b ))))
(assert (bvsle (bvxor (bvshl bv_2 #x5dbd2a5b ) (bvashr bv_1 #xf04e94ae )) (bvashr (bvnor #x7feec55c  #x6562211b ) (bvnand #x51a0cfea  bv_0))))
(assert (and (xor (bvuge bv_4 bv_4) (bvult #xffd06e4b  bv_1)) (bvugt (bvsub #x3a91db31  #x5825ae85 ) (bvurem bv_2 #x0a65f4b1 ))))
(assert (bvuge (bvashr (bvnor bv_2 bv_1) (bvadd #xe04ffe22  bv_4)) (bvor (bvshl #x62a80141  bv_4) (bvshl #x1beb1ea0  bv_3))))
(assert (bvsgt (bvudiv (bvor bv_0 #xb0a44cc5 ) (bvashr bv_1 bv_3)) (bvudiv (bvnand bv_2 #x91d657e7 ) (bvxor #x41ac6206  #xe72ff1d5 ))))
(check-sat)
(exit)
